array [1..2] of int: X_INTRODUCED_1_ = [1,-1];
var {121,122,211,212,221}: Vb21:: output_var;
var {111,112,121,122,211,212,221,231,311}: Vb22:: output_var;
var {111,112,121,122,211,212,221}: Vb23:: output_var;
var {111,112,121,122,211,212,221,231,311}: Vb24:: output_var;
var {111,112,121,122,211,212,221,231,311}: Vb25:: output_var;
var {111,112,121,122,211,212,221,231,311}: Vg11:: output_var;
var {111,112,121,122,211,212,221,231}: Vg12:: output_var;
var {111,112,121,122,211,212,221,231}: Vg13:: output_var;
var {111,112,121,122,211,212,221,231,311}: Vg14:: output_var;
var 1..3: X_INTRODUCED_2_ ::var_is_introduced :: is_defined_var;
var 1..2: X_INTRODUCED_4_ ::var_is_introduced :: is_defined_var;
var bool: X_INTRODUCED_6_ ::var_is_introduced :: is_defined_var;
var {11,12,21,22,31}: X_INTRODUCED_7_ ::var_is_introduced :: is_defined_var;
var 1..3: X_INTRODUCED_8_ ::var_is_introduced ;
var {12,21,22}: X_INTRODUCED_9_ ::var_is_introduced :: is_defined_var;
var 1..2: X_INTRODUCED_10_ ::var_is_introduced ;
var bool: X_INTRODUCED_11_ ::var_is_introduced :: is_defined_var;
var 1..2: X_INTRODUCED_12_ ::var_is_introduced ;
var 1..2: X_INTRODUCED_13_ ::var_is_introduced ;
var bool: X_INTRODUCED_14_ ::var_is_introduced :: is_defined_var;
var 1..2: X_INTRODUCED_15_ ::var_is_introduced :: is_defined_var;
var bool: X_INTRODUCED_16_ ::var_is_introduced :: is_defined_var;
var {11,12,21,22}: X_INTRODUCED_17_ ::var_is_introduced :: is_defined_var;
var 1..3: X_INTRODUCED_18_ ::var_is_introduced ;
var bool: X_INTRODUCED_19_ ::var_is_introduced :: is_defined_var;
var 1..2: X_INTRODUCED_20_ ::var_is_introduced ;
var bool: X_INTRODUCED_22_ ::var_is_introduced :: is_defined_var;
var 1..3: X_INTRODUCED_23_ ::var_is_introduced :: is_defined_var;
var bool: X_INTRODUCED_24_ ::var_is_introduced :: is_defined_var;
var {11,12,21,31}: X_INTRODUCED_25_ ::var_is_introduced :: is_defined_var;
var 1..3: X_INTRODUCED_26_ ::var_is_introduced ;
var bool: X_INTRODUCED_28_ ::var_is_introduced :: is_defined_var;
var 1..2: X_INTRODUCED_29_ ::var_is_introduced ;
var bool: X_INTRODUCED_30_ ::var_is_introduced :: is_defined_var;
var 1..3: X_INTRODUCED_31_ ::var_is_introduced :: is_defined_var;
var bool: X_INTRODUCED_32_ ::var_is_introduced :: is_defined_var;
var {11,12,21,22,31}: X_INTRODUCED_33_ ::var_is_introduced :: is_defined_var;
var 1..3: X_INTRODUCED_34_ ::var_is_introduced ;
var bool: X_INTRODUCED_35_ ::var_is_introduced :: is_defined_var;
var 1..2: X_INTRODUCED_36_ ::var_is_introduced ;
var bool: X_INTRODUCED_38_ ::var_is_introduced :: is_defined_var;
var bool: X_INTRODUCED_39_ ::var_is_introduced :: is_defined_var;
var bool: X_INTRODUCED_40_ ::var_is_introduced :: is_defined_var;
var bool: X_INTRODUCED_41_ ::var_is_introduced :: is_defined_var;
var bool: X_INTRODUCED_43_ ::var_is_introduced :: is_defined_var;
var bool: X_INTRODUCED_44_ ::var_is_introduced :: is_defined_var;
var bool: X_INTRODUCED_45_ ::var_is_introduced :: is_defined_var;
var bool: X_INTRODUCED_46_ ::var_is_introduced :: is_defined_var;
var bool: X_INTRODUCED_47_ ::var_is_introduced :: is_defined_var;
var bool: X_INTRODUCED_48_ ::var_is_introduced :: is_defined_var;
var bool: X_INTRODUCED_49_ ::var_is_introduced :: is_defined_var;
var bool: X_INTRODUCED_52_ ::var_is_introduced :: is_defined_var;
var bool: X_INTRODUCED_54_ ::var_is_introduced :: is_defined_var;
var bool: X_INTRODUCED_57_ ::var_is_introduced :: is_defined_var;
var bool: X_INTRODUCED_58_ ::var_is_introduced :: is_defined_var;
var bool: X_INTRODUCED_59_ ::var_is_introduced :: is_defined_var;
var bool: X_INTRODUCED_60_ ::var_is_introduced :: is_defined_var;
var bool: X_INTRODUCED_61_ ::var_is_introduced :: is_defined_var;
var bool: X_INTRODUCED_64_ ::var_is_introduced :: is_defined_var;
var bool: X_INTRODUCED_65_ ::var_is_introduced :: is_defined_var;
var bool: X_INTRODUCED_66_ ::var_is_introduced :: is_defined_var;
var bool: X_INTRODUCED_67_ ::var_is_introduced :: is_defined_var;
var bool: X_INTRODUCED_70_ ::var_is_introduced :: is_defined_var;
var bool: X_INTRODUCED_71_ ::var_is_introduced :: is_defined_var;
var bool: X_INTRODUCED_72_ ::var_is_introduced :: is_defined_var;
var bool: X_INTRODUCED_79_ ::var_is_introduced :: is_defined_var;
var bool: X_INTRODUCED_80_ ::var_is_introduced :: is_defined_var;
var bool: X_INTRODUCED_85_ ::var_is_introduced :: is_defined_var;
var bool: X_INTRODUCED_86_ ::var_is_introduced :: is_defined_var;
var bool: X_INTRODUCED_99_ ::var_is_introduced :: is_defined_var;
var bool: X_INTRODUCED_100_ ::var_is_introduced :: is_defined_var;
var bool: X_INTRODUCED_101_ ::var_is_introduced :: is_defined_var;
var 1..2: X_INTRODUCED_106_ ::var_is_introduced :: is_defined_var;
var 1..3: X_INTRODUCED_107_ ::var_is_introduced :: is_defined_var;
var bool: X_INTRODUCED_109_ ::var_is_introduced :: is_defined_var;
var {11,12,21,22,23}: X_INTRODUCED_110_ ::var_is_introduced :: is_defined_var;
var 1..3: X_INTRODUCED_111_ ::var_is_introduced ;
var {11,12,21,23,31}: X_INTRODUCED_112_ ::var_is_introduced :: is_defined_var;
var 1..3: X_INTRODUCED_113_ ::var_is_introduced ;
var bool: X_INTRODUCED_114_ ::var_is_introduced :: is_defined_var;
var 1..2: X_INTRODUCED_115_ ::var_is_introduced ;
var 1..2: X_INTRODUCED_116_ ::var_is_introduced ;
var bool: X_INTRODUCED_117_ ::var_is_introduced :: is_defined_var;
var 1..2: X_INTRODUCED_118_ ::var_is_introduced :: is_defined_var;
var bool: X_INTRODUCED_119_ ::var_is_introduced :: is_defined_var;
var {11,12,21,22,23}: X_INTRODUCED_120_ ::var_is_introduced :: is_defined_var;
var 1..3: X_INTRODUCED_121_ ::var_is_introduced ;
var bool: X_INTRODUCED_123_ ::var_is_introduced :: is_defined_var;
var 1..2: X_INTRODUCED_124_ ::var_is_introduced ;
var bool: X_INTRODUCED_125_ ::var_is_introduced :: is_defined_var;
var 1..3: X_INTRODUCED_126_ ::var_is_introduced :: is_defined_var;
var bool: X_INTRODUCED_128_ ::var_is_introduced :: is_defined_var;
var {11,12,21,23,31}: X_INTRODUCED_129_ ::var_is_introduced :: is_defined_var;
var 1..3: X_INTRODUCED_130_ ::var_is_introduced ;
var bool: X_INTRODUCED_131_ ::var_is_introduced :: is_defined_var;
var 1..2: X_INTRODUCED_132_ ::var_is_introduced ;
var bool: X_INTRODUCED_133_ ::var_is_introduced :: is_defined_var;
var bool: X_INTRODUCED_134_ ::var_is_introduced :: is_defined_var;
var bool: X_INTRODUCED_135_ ::var_is_introduced :: is_defined_var;
var bool: X_INTRODUCED_136_ ::var_is_introduced :: is_defined_var;
var bool: X_INTRODUCED_137_ ::var_is_introduced :: is_defined_var;
var bool: X_INTRODUCED_139_ ::var_is_introduced :: is_defined_var;
var bool: X_INTRODUCED_140_ ::var_is_introduced :: is_defined_var;
var bool: X_INTRODUCED_142_ ::var_is_introduced :: is_defined_var;
var bool: X_INTRODUCED_143_ ::var_is_introduced :: is_defined_var;
var bool: X_INTRODUCED_144_ ::var_is_introduced :: is_defined_var;
var bool: X_INTRODUCED_149_ ::var_is_introduced :: is_defined_var;
var bool: X_INTRODUCED_150_ ::var_is_introduced :: is_defined_var;
var bool: X_INTRODUCED_151_ ::var_is_introduced :: is_defined_var;
var bool: X_INTRODUCED_152_ ::var_is_introduced :: is_defined_var;
var bool: X_INTRODUCED_154_ ::var_is_introduced :: is_defined_var;
var bool: X_INTRODUCED_155_ ::var_is_introduced :: is_defined_var;
var bool: X_INTRODUCED_158_ ::var_is_introduced :: is_defined_var;
var bool: X_INTRODUCED_159_ ::var_is_introduced :: is_defined_var;
var bool: X_INTRODUCED_160_ ::var_is_introduced :: is_defined_var;
var bool: X_INTRODUCED_163_ ::var_is_introduced :: is_defined_var;
var bool: X_INTRODUCED_164_ ::var_is_introduced :: is_defined_var;
var bool: X_INTRODUCED_166_ ::var_is_introduced :: is_defined_var;
var bool: X_INTRODUCED_167_ ::var_is_introduced :: is_defined_var;
var bool: X_INTRODUCED_168_ ::var_is_introduced :: is_defined_var;
var bool: X_INTRODUCED_170_ ::var_is_introduced :: is_defined_var;
var bool: X_INTRODUCED_172_ ::var_is_introduced :: is_defined_var;
var bool: X_INTRODUCED_175_ ::var_is_introduced :: is_defined_var;
var bool: X_INTRODUCED_176_ ::var_is_introduced :: is_defined_var;
var bool: X_INTRODUCED_177_ ::var_is_introduced :: is_defined_var;
var bool: X_INTRODUCED_179_ ::var_is_introduced :: is_defined_var;
var bool: X_INTRODUCED_180_ ::var_is_introduced :: is_defined_var;
var bool: X_INTRODUCED_181_ ::var_is_introduced :: is_defined_var;
var bool: X_INTRODUCED_182_ ::var_is_introduced :: is_defined_var;
array [1..12] of var bool: X_INTRODUCED_51_ ::var_is_introduced  = [X_INTRODUCED_49_,X_INTRODUCED_48_,X_INTRODUCED_47_,X_INTRODUCED_46_,X_INTRODUCED_45_,X_INTRODUCED_44_,X_INTRODUCED_43_,X_INTRODUCED_41_,X_INTRODUCED_40_,X_INTRODUCED_38_,X_INTRODUCED_16_,X_INTRODUCED_11_];
array [1..12] of var bool: X_INTRODUCED_56_ ::var_is_introduced  = [X_INTRODUCED_54_,X_INTRODUCED_52_,X_INTRODUCED_47_,X_INTRODUCED_45_,X_INTRODUCED_44_,X_INTRODUCED_41_,X_INTRODUCED_40_,X_INTRODUCED_38_,X_INTRODUCED_35_,X_INTRODUCED_28_,X_INTRODUCED_19_,X_INTRODUCED_11_];
array [1..12] of var bool: X_INTRODUCED_63_ ::var_is_introduced  = [X_INTRODUCED_61_,X_INTRODUCED_60_,X_INTRODUCED_59_,X_INTRODUCED_58_,X_INTRODUCED_57_,X_INTRODUCED_54_,X_INTRODUCED_52_,X_INTRODUCED_45_,X_INTRODUCED_44_,X_INTRODUCED_40_,X_INTRODUCED_19_,X_INTRODUCED_14_];
array [1..12] of var bool: X_INTRODUCED_69_ ::var_is_introduced  = [X_INTRODUCED_67_,X_INTRODUCED_66_,X_INTRODUCED_65_,X_INTRODUCED_64_,X_INTRODUCED_47_,X_INTRODUCED_44_,X_INTRODUCED_40_,X_INTRODUCED_35_,X_INTRODUCED_32_,X_INTRODUCED_28_,X_INTRODUCED_19_,X_INTRODUCED_11_];
array [1..12] of var bool: X_INTRODUCED_74_ ::var_is_introduced  = [X_INTRODUCED_72_,X_INTRODUCED_54_,X_INTRODUCED_46_,X_INTRODUCED_38_,X_INTRODUCED_35_,X_INTRODUCED_30_,X_INTRODUCED_24_,X_INTRODUCED_22_,X_INTRODUCED_19_,X_INTRODUCED_16_,X_INTRODUCED_14_,X_INTRODUCED_11_];
array [1..12] of var bool: X_INTRODUCED_76_ ::var_is_introduced  = [X_INTRODUCED_60_,X_INTRODUCED_58_,X_INTRODUCED_57_,X_INTRODUCED_48_,X_INTRODUCED_45_,X_INTRODUCED_40_,X_INTRODUCED_38_,X_INTRODUCED_30_,X_INTRODUCED_22_,X_INTRODUCED_19_,X_INTRODUCED_16_,X_INTRODUCED_14_];
array [1..12] of var bool: X_INTRODUCED_78_ ::var_is_introduced  = [X_INTRODUCED_70_,X_INTRODUCED_67_,X_INTRODUCED_64_,X_INTRODUCED_60_,X_INTRODUCED_48_,X_INTRODUCED_47_,X_INTRODUCED_45_,X_INTRODUCED_44_,X_INTRODUCED_40_,X_INTRODUCED_28_,X_INTRODUCED_16_,X_INTRODUCED_11_];
array [1..12] of var bool: X_INTRODUCED_82_ ::var_is_introduced  = [X_INTRODUCED_72_,X_INTRODUCED_70_,X_INTRODUCED_61_,X_INTRODUCED_60_,X_INTRODUCED_54_,X_INTRODUCED_44_,X_INTRODUCED_30_,X_INTRODUCED_28_,X_INTRODUCED_24_,X_INTRODUCED_16_,X_INTRODUCED_14_,X_INTRODUCED_11_];
array [1..12] of var bool: X_INTRODUCED_84_ ::var_is_introduced  = [X_INTRODUCED_66_,X_INTRODUCED_65_,X_INTRODUCED_47_,X_INTRODUCED_46_,X_INTRODUCED_44_,X_INTRODUCED_41_,X_INTRODUCED_40_,X_INTRODUCED_38_,X_INTRODUCED_35_,X_INTRODUCED_32_,X_INTRODUCED_19_,X_INTRODUCED_11_];
array [1..12] of var bool: X_INTRODUCED_88_ ::var_is_introduced  = [X_INTRODUCED_61_,X_INTRODUCED_49_,X_INTRODUCED_46_,X_INTRODUCED_44_,X_INTRODUCED_43_,X_INTRODUCED_32_,X_INTRODUCED_30_,X_INTRODUCED_24_,X_INTRODUCED_16_,X_INTRODUCED_14_,X_INTRODUCED_11_,X_INTRODUCED_6_];
array [1..12] of var bool: X_INTRODUCED_90_ ::var_is_introduced  = [X_INTRODUCED_85_,X_INTRODUCED_79_,X_INTRODUCED_67_,X_INTRODUCED_59_,X_INTRODUCED_58_,X_INTRODUCED_49_,X_INTRODUCED_48_,X_INTRODUCED_45_,X_INTRODUCED_40_,X_INTRODUCED_19_,X_INTRODUCED_16_,X_INTRODUCED_14_];
array [1..12] of var bool: X_INTRODUCED_92_ ::var_is_introduced  = [X_INTRODUCED_67_,X_INTRODUCED_66_,X_INTRODUCED_64_,X_INTRODUCED_49_,X_INTRODUCED_48_,X_INTRODUCED_47_,X_INTRODUCED_46_,X_INTRODUCED_44_,X_INTRODUCED_43_,X_INTRODUCED_40_,X_INTRODUCED_16_,X_INTRODUCED_11_];
array [1..12] of var bool: X_INTRODUCED_94_ ::var_is_introduced  = [X_INTRODUCED_85_,X_INTRODUCED_67_,X_INTRODUCED_59_,X_INTRODUCED_46_,X_INTRODUCED_35_,X_INTRODUCED_32_,X_INTRODUCED_24_,X_INTRODUCED_19_,X_INTRODUCED_16_,X_INTRODUCED_14_,X_INTRODUCED_11_,X_INTRODUCED_6_];
array [1..12] of var bool: X_INTRODUCED_96_ ::var_is_introduced  = [X_INTRODUCED_85_,X_INTRODUCED_67_,X_INTRODUCED_66_,X_INTRODUCED_60_,X_INTRODUCED_59_,X_INTRODUCED_58_,X_INTRODUCED_57_,X_INTRODUCED_48_,X_INTRODUCED_40_,X_INTRODUCED_19_,X_INTRODUCED_16_,X_INTRODUCED_14_];
array [1..12] of var bool: X_INTRODUCED_98_ ::var_is_introduced  = [X_INTRODUCED_79_,X_INTRODUCED_66_,X_INTRODUCED_65_,X_INTRODUCED_61_,X_INTRODUCED_59_,X_INTRODUCED_58_,X_INTRODUCED_49_,X_INTRODUCED_44_,X_INTRODUCED_40_,X_INTRODUCED_32_,X_INTRODUCED_19_,X_INTRODUCED_14_];
array [1..12] of var bool: X_INTRODUCED_103_ ::var_is_introduced  = [X_INTRODUCED_66_,X_INTRODUCED_65_,X_INTRODUCED_61_,X_INTRODUCED_60_,X_INTRODUCED_58_,X_INTRODUCED_57_,X_INTRODUCED_44_,X_INTRODUCED_40_,X_INTRODUCED_32_,X_INTRODUCED_30_,X_INTRODUCED_19_,X_INTRODUCED_14_];
array [1..12] of var bool: X_INTRODUCED_105_ ::var_is_introduced  = [X_INTRODUCED_79_,X_INTRODUCED_61_,X_INTRODUCED_58_,X_INTRODUCED_54_,X_INTRODUCED_52_,X_INTRODUCED_49_,X_INTRODUCED_45_,X_INTRODUCED_44_,X_INTRODUCED_40_,X_INTRODUCED_30_,X_INTRODUCED_19_,X_INTRODUCED_14_];
constraint int_lin_ne(X_INTRODUCED_1_,[Vb21,Vb22],0);
constraint int_lin_ne(X_INTRODUCED_1_,[Vb21,Vb23],0);
constraint int_lin_ne(X_INTRODUCED_1_,[Vb21,Vb24],0);
constraint int_lin_ne(X_INTRODUCED_1_,[Vb21,Vb25],0);
constraint int_lin_ne(X_INTRODUCED_1_,[Vb21,Vg11],0);
constraint int_lin_ne(X_INTRODUCED_1_,[Vb21,Vg12],0);
constraint int_lin_ne(X_INTRODUCED_1_,[Vb21,Vg13],0);
constraint int_lin_ne(X_INTRODUCED_1_,[Vb21,Vg14],0);
constraint int_lin_ne(X_INTRODUCED_1_,[Vb22,Vb23],0);
constraint int_lin_ne(X_INTRODUCED_1_,[Vb22,Vb24],0);
constraint int_lin_ne(X_INTRODUCED_1_,[Vb22,Vb25],0);
constraint int_lin_ne(X_INTRODUCED_1_,[Vb22,Vg11],0);
constraint int_lin_ne(X_INTRODUCED_1_,[Vb22,Vg12],0);
constraint int_lin_ne(X_INTRODUCED_1_,[Vb22,Vg13],0);
constraint int_lin_ne(X_INTRODUCED_1_,[Vb22,Vg14],0);
constraint int_lin_ne(X_INTRODUCED_1_,[Vb23,Vb24],0);
constraint int_lin_ne(X_INTRODUCED_1_,[Vb23,Vb25],0);
constraint int_lin_ne(X_INTRODUCED_1_,[Vb23,Vg11],0);
constraint int_lin_ne(X_INTRODUCED_1_,[Vb23,Vg12],0);
constraint int_lin_ne(X_INTRODUCED_1_,[Vb23,Vg13],0);
constraint int_lin_ne(X_INTRODUCED_1_,[Vb23,Vg14],0);
constraint int_lin_ne(X_INTRODUCED_1_,[Vb24,Vb25],0);
constraint int_lin_ne(X_INTRODUCED_1_,[Vb24,Vg11],0);
constraint int_lin_ne(X_INTRODUCED_1_,[Vb24,Vg12],0);
constraint int_lin_ne(X_INTRODUCED_1_,[Vb24,Vg13],0);
constraint int_lin_ne(X_INTRODUCED_1_,[Vb24,Vg14],0);
constraint int_lin_ne(X_INTRODUCED_1_,[Vb25,Vg11],0);
constraint int_lin_ne(X_INTRODUCED_1_,[Vb25,Vg12],0);
constraint int_lin_ne(X_INTRODUCED_1_,[Vb25,Vg13],0);
constraint int_lin_ne(X_INTRODUCED_1_,[Vb25,Vg14],0);
constraint int_lin_ne(X_INTRODUCED_1_,[Vg11,Vg12],0);
constraint int_lin_ne(X_INTRODUCED_1_,[Vg11,Vg13],0);
constraint int_lin_ne(X_INTRODUCED_1_,[Vg11,Vg14],0);
constraint int_lin_ne(X_INTRODUCED_1_,[Vg12,Vg13],0);
constraint int_lin_ne(X_INTRODUCED_1_,[Vg12,Vg14],0);
constraint int_lin_ne(X_INTRODUCED_1_,[Vg13,Vg14],0);
constraint int_div(Vb22,100,X_INTRODUCED_2_):: defines_var(X_INTRODUCED_2_);
constraint int_div(Vb21,100,X_INTRODUCED_4_):: defines_var(X_INTRODUCED_4_);
constraint int_div(Vb22,10,X_INTRODUCED_7_):: defines_var(X_INTRODUCED_7_);
constraint int_mod(X_INTRODUCED_7_,10,X_INTRODUCED_8_);
constraint int_div(Vb21,10,X_INTRODUCED_9_):: defines_var(X_INTRODUCED_9_);
constraint int_mod(X_INTRODUCED_9_,10,X_INTRODUCED_10_);
constraint int_mod(Vb22,10,X_INTRODUCED_12_);
constraint int_mod(Vb21,10,X_INTRODUCED_13_);
constraint int_div(Vb23,100,X_INTRODUCED_15_):: defines_var(X_INTRODUCED_15_);
constraint int_div(Vb23,10,X_INTRODUCED_17_):: defines_var(X_INTRODUCED_17_);
constraint int_mod(X_INTRODUCED_17_,10,X_INTRODUCED_18_);
constraint int_mod(Vb23,10,X_INTRODUCED_20_);
constraint int_div(Vb24,100,X_INTRODUCED_23_):: defines_var(X_INTRODUCED_23_);
constraint int_div(Vb24,10,X_INTRODUCED_25_):: defines_var(X_INTRODUCED_25_);
constraint int_mod(X_INTRODUCED_25_,10,X_INTRODUCED_26_);
constraint int_mod(Vb24,10,X_INTRODUCED_29_);
constraint int_div(Vb25,100,X_INTRODUCED_31_):: defines_var(X_INTRODUCED_31_);
constraint int_div(Vb25,10,X_INTRODUCED_33_):: defines_var(X_INTRODUCED_33_);
constraint int_mod(X_INTRODUCED_33_,10,X_INTRODUCED_34_);
constraint int_mod(Vb25,10,X_INTRODUCED_36_);
constraint array_bool_and(X_INTRODUCED_51_,false);
constraint array_bool_and(X_INTRODUCED_56_,false);
constraint array_bool_and(X_INTRODUCED_63_,false);
constraint array_bool_and(X_INTRODUCED_69_,false);
constraint array_bool_and(X_INTRODUCED_74_,false);
constraint array_bool_and(X_INTRODUCED_76_,false);
constraint array_bool_and(X_INTRODUCED_78_,false);
constraint array_bool_and(X_INTRODUCED_82_,false);
constraint array_bool_and(X_INTRODUCED_84_,false);
constraint array_bool_and(X_INTRODUCED_88_,false);
constraint array_bool_and(X_INTRODUCED_90_,false);
constraint array_bool_and(X_INTRODUCED_92_,false);
constraint array_bool_and(X_INTRODUCED_94_,false);
constraint array_bool_and(X_INTRODUCED_96_,false);
constraint array_bool_and(X_INTRODUCED_98_,false);
constraint array_bool_and(X_INTRODUCED_103_,false);
constraint array_bool_and(X_INTRODUCED_105_,false);
constraint array_bool_or([X_INTRODUCED_101_,X_INTRODUCED_100_,X_INTRODUCED_99_,X_INTRODUCED_86_,X_INTRODUCED_80_,X_INTRODUCED_71_,X_INTRODUCED_39_],true);
constraint int_div(Vg12,100,X_INTRODUCED_106_):: defines_var(X_INTRODUCED_106_);
constraint int_div(Vg11,100,X_INTRODUCED_107_):: defines_var(X_INTRODUCED_107_);
constraint int_div(Vg12,10,X_INTRODUCED_110_):: defines_var(X_INTRODUCED_110_);
constraint int_mod(X_INTRODUCED_110_,10,X_INTRODUCED_111_);
constraint int_div(Vg11,10,X_INTRODUCED_112_):: defines_var(X_INTRODUCED_112_);
constraint int_mod(X_INTRODUCED_112_,10,X_INTRODUCED_113_);
constraint int_mod(Vg12,10,X_INTRODUCED_115_);
constraint int_mod(Vg11,10,X_INTRODUCED_116_);
constraint int_div(Vg13,100,X_INTRODUCED_118_):: defines_var(X_INTRODUCED_118_);
constraint int_div(Vg13,10,X_INTRODUCED_120_):: defines_var(X_INTRODUCED_120_);
constraint int_mod(X_INTRODUCED_120_,10,X_INTRODUCED_121_);
constraint int_mod(Vg13,10,X_INTRODUCED_124_);
constraint int_div(Vg14,100,X_INTRODUCED_126_):: defines_var(X_INTRODUCED_126_);
constraint int_div(Vg14,10,X_INTRODUCED_129_):: defines_var(X_INTRODUCED_129_);
constraint int_mod(X_INTRODUCED_129_,10,X_INTRODUCED_130_);
constraint int_mod(Vg14,10,X_INTRODUCED_132_);
constraint int_lin_eq_reif(X_INTRODUCED_1_,[X_INTRODUCED_132_,X_INTRODUCED_116_],-2,false);
constraint int_lin_eq_reif(X_INTRODUCED_1_,[X_INTRODUCED_132_,X_INTRODUCED_116_],2,false);
constraint array_bool_and([X_INTRODUCED_170_,X_INTRODUCED_168_,X_INTRODUCED_166_,X_INTRODUCED_160_,X_INTRODUCED_158_,X_INTRODUCED_143_,X_INTRODUCED_139_,X_INTRODUCED_117_,X_INTRODUCED_114_],false);
constraint array_bool_and([X_INTRODUCED_150_,X_INTRODUCED_149_,X_INTRODUCED_133_,X_INTRODUCED_128_,X_INTRODUCED_125_,X_INTRODUCED_119_,X_INTRODUCED_117_,X_INTRODUCED_114_,X_INTRODUCED_109_],false);
constraint array_bool_and([X_INTRODUCED_170_,X_INTRODUCED_168_,X_INTRODUCED_166_,X_INTRODUCED_133_,X_INTRODUCED_131_,X_INTRODUCED_125_,X_INTRODUCED_123_,X_INTRODUCED_117_,X_INTRODUCED_114_],false);
constraint array_bool_and([X_INTRODUCED_163_,X_INTRODUCED_160_,X_INTRODUCED_159_,X_INTRODUCED_158_,X_INTRODUCED_128_,X_INTRODUCED_119_,X_INTRODUCED_117_,X_INTRODUCED_114_,X_INTRODUCED_109_],false);
constraint array_bool_or([X_INTRODUCED_177_,X_INTRODUCED_176_,X_INTRODUCED_175_,X_INTRODUCED_172_,X_INTRODUCED_164_,X_INTRODUCED_155_,X_INTRODUCED_144_,X_INTRODUCED_134_,X_INTRODUCED_179_,X_INTRODUCED_180_,X_INTRODUCED_181_,X_INTRODUCED_182_],true);
constraint int_lin_eq_reif(X_INTRODUCED_1_,[X_INTRODUCED_2_,X_INTRODUCED_4_],-1,X_INTRODUCED_6_):: defines_var(X_INTRODUCED_6_);
constraint int_eq_reif(X_INTRODUCED_8_,X_INTRODUCED_10_,X_INTRODUCED_11_):: defines_var(X_INTRODUCED_11_);
constraint int_eq_reif(X_INTRODUCED_12_,X_INTRODUCED_13_,X_INTRODUCED_14_):: defines_var(X_INTRODUCED_14_);
constraint int_eq_reif(X_INTRODUCED_15_,X_INTRODUCED_4_,X_INTRODUCED_16_):: defines_var(X_INTRODUCED_16_);
constraint int_eq_reif(X_INTRODUCED_18_,X_INTRODUCED_10_,X_INTRODUCED_19_):: defines_var(X_INTRODUCED_19_);
constraint int_lin_eq_reif(X_INTRODUCED_1_,[X_INTRODUCED_20_,X_INTRODUCED_13_],-1,X_INTRODUCED_22_):: defines_var(X_INTRODUCED_22_);
constraint int_eq_reif(X_INTRODUCED_23_,X_INTRODUCED_4_,X_INTRODUCED_24_):: defines_var(X_INTRODUCED_24_);
constraint int_lin_eq_reif(X_INTRODUCED_1_,[X_INTRODUCED_26_,X_INTRODUCED_10_],-1,X_INTRODUCED_28_):: defines_var(X_INTRODUCED_28_);
constraint int_lin_eq_reif(X_INTRODUCED_1_,[X_INTRODUCED_29_,X_INTRODUCED_13_],-1,X_INTRODUCED_30_):: defines_var(X_INTRODUCED_30_);
constraint int_lin_eq_reif(X_INTRODUCED_1_,[X_INTRODUCED_31_,X_INTRODUCED_4_],-1,X_INTRODUCED_32_):: defines_var(X_INTRODUCED_32_);
constraint int_eq_reif(X_INTRODUCED_34_,X_INTRODUCED_10_,X_INTRODUCED_35_):: defines_var(X_INTRODUCED_35_);
constraint int_lin_eq_reif(X_INTRODUCED_1_,[X_INTRODUCED_36_,X_INTRODUCED_13_],1,X_INTRODUCED_38_):: defines_var(X_INTRODUCED_38_);
constraint array_bool_and([X_INTRODUCED_38_,X_INTRODUCED_35_,X_INTRODUCED_32_,X_INTRODUCED_30_,X_INTRODUCED_28_,X_INTRODUCED_24_,X_INTRODUCED_22_,X_INTRODUCED_19_,X_INTRODUCED_16_,X_INTRODUCED_14_,X_INTRODUCED_11_,X_INTRODUCED_6_],X_INTRODUCED_39_):: defines_var(X_INTRODUCED_39_);
constraint int_eq_reif(X_INTRODUCED_2_,X_INTRODUCED_4_,X_INTRODUCED_40_):: defines_var(X_INTRODUCED_40_);
constraint int_lin_eq_reif(X_INTRODUCED_1_,[X_INTRODUCED_12_,X_INTRODUCED_13_],1,X_INTRODUCED_41_):: defines_var(X_INTRODUCED_41_);
constraint int_lin_eq_reif(X_INTRODUCED_1_,[X_INTRODUCED_18_,X_INTRODUCED_10_],1,X_INTRODUCED_43_):: defines_var(X_INTRODUCED_43_);
constraint int_eq_reif(X_INTRODUCED_20_,X_INTRODUCED_13_,X_INTRODUCED_44_):: defines_var(X_INTRODUCED_44_);
constraint int_lin_eq_reif(X_INTRODUCED_1_,[X_INTRODUCED_23_,X_INTRODUCED_4_],-1,X_INTRODUCED_45_):: defines_var(X_INTRODUCED_45_);
constraint int_lin_eq_reif(X_INTRODUCED_1_,[X_INTRODUCED_26_,X_INTRODUCED_10_],1,X_INTRODUCED_46_):: defines_var(X_INTRODUCED_46_);
constraint int_eq_reif(X_INTRODUCED_29_,X_INTRODUCED_13_,X_INTRODUCED_47_):: defines_var(X_INTRODUCED_47_);
constraint int_eq_reif(X_INTRODUCED_31_,X_INTRODUCED_4_,X_INTRODUCED_48_):: defines_var(X_INTRODUCED_48_);
constraint int_lin_eq_reif(X_INTRODUCED_1_,[X_INTRODUCED_34_,X_INTRODUCED_10_],-1,X_INTRODUCED_49_):: defines_var(X_INTRODUCED_49_);
constraint int_lin_eq_reif(X_INTRODUCED_1_,[X_INTRODUCED_15_,X_INTRODUCED_4_],-1,X_INTRODUCED_52_):: defines_var(X_INTRODUCED_52_);
constraint int_lin_eq_reif(X_INTRODUCED_1_,[X_INTRODUCED_31_,X_INTRODUCED_4_],1,X_INTRODUCED_54_):: defines_var(X_INTRODUCED_54_);
constraint int_lin_eq_reif(X_INTRODUCED_1_,[X_INTRODUCED_8_,X_INTRODUCED_10_],1,X_INTRODUCED_57_):: defines_var(X_INTRODUCED_57_);
constraint int_eq_reif(X_INTRODUCED_26_,X_INTRODUCED_10_,X_INTRODUCED_58_):: defines_var(X_INTRODUCED_58_);
constraint int_lin_eq_reif(X_INTRODUCED_1_,[X_INTRODUCED_29_,X_INTRODUCED_13_],1,X_INTRODUCED_59_):: defines_var(X_INTRODUCED_59_);
constraint int_lin_eq_reif(X_INTRODUCED_1_,[X_INTRODUCED_34_,X_INTRODUCED_10_],1,X_INTRODUCED_60_):: defines_var(X_INTRODUCED_60_);
constraint int_eq_reif(X_INTRODUCED_36_,X_INTRODUCED_13_,X_INTRODUCED_61_):: defines_var(X_INTRODUCED_61_);
constraint int_lin_eq_reif(X_INTRODUCED_1_,[X_INTRODUCED_12_,X_INTRODUCED_13_],-1,X_INTRODUCED_64_):: defines_var(X_INTRODUCED_64_);
constraint int_lin_eq_reif(X_INTRODUCED_1_,[X_INTRODUCED_15_,X_INTRODUCED_4_],1,X_INTRODUCED_65_):: defines_var(X_INTRODUCED_65_);
constraint int_lin_eq_reif(X_INTRODUCED_1_,[X_INTRODUCED_23_,X_INTRODUCED_4_],1,X_INTRODUCED_66_):: defines_var(X_INTRODUCED_66_);
constraint int_lin_eq_reif(X_INTRODUCED_1_,[X_INTRODUCED_36_,X_INTRODUCED_13_],-1,X_INTRODUCED_67_):: defines_var(X_INTRODUCED_67_);
constraint int_lin_eq_reif(X_INTRODUCED_1_,[X_INTRODUCED_18_,X_INTRODUCED_10_],-1,X_INTRODUCED_70_):: defines_var(X_INTRODUCED_70_);
constraint array_bool_and([X_INTRODUCED_70_,X_INTRODUCED_61_,X_INTRODUCED_60_,X_INTRODUCED_59_,X_INTRODUCED_44_,X_INTRODUCED_32_,X_INTRODUCED_28_,X_INTRODUCED_24_,X_INTRODUCED_16_,X_INTRODUCED_14_,X_INTRODUCED_11_,X_INTRODUCED_6_],X_INTRODUCED_71_):: defines_var(X_INTRODUCED_71_);
constraint int_lin_eq_reif(X_INTRODUCED_1_,[X_INTRODUCED_2_,X_INTRODUCED_4_],1,X_INTRODUCED_72_):: defines_var(X_INTRODUCED_72_);
constraint int_lin_eq_reif(X_INTRODUCED_1_,[X_INTRODUCED_8_,X_INTRODUCED_10_],-1,X_INTRODUCED_79_):: defines_var(X_INTRODUCED_79_);
constraint array_bool_and([X_INTRODUCED_79_,X_INTRODUCED_66_,X_INTRODUCED_58_,X_INTRODUCED_49_,X_INTRODUCED_48_,X_INTRODUCED_40_,X_INTRODUCED_38_,X_INTRODUCED_30_,X_INTRODUCED_22_,X_INTRODUCED_19_,X_INTRODUCED_16_,X_INTRODUCED_14_],X_INTRODUCED_80_):: defines_var(X_INTRODUCED_80_);
constraint int_lin_eq_reif(X_INTRODUCED_1_,[X_INTRODUCED_20_,X_INTRODUCED_13_],1,X_INTRODUCED_85_):: defines_var(X_INTRODUCED_85_);
constraint array_bool_and([X_INTRODUCED_85_,X_INTRODUCED_72_,X_INTRODUCED_67_,X_INTRODUCED_59_,X_INTRODUCED_54_,X_INTRODUCED_35_,X_INTRODUCED_28_,X_INTRODUCED_24_,X_INTRODUCED_19_,X_INTRODUCED_16_,X_INTRODUCED_14_,X_INTRODUCED_11_],X_INTRODUCED_86_):: defines_var(X_INTRODUCED_86_);
constraint array_bool_and([X_INTRODUCED_70_,X_INTRODUCED_66_,X_INTRODUCED_60_,X_INTRODUCED_48_,X_INTRODUCED_47_,X_INTRODUCED_44_,X_INTRODUCED_41_,X_INTRODUCED_40_,X_INTRODUCED_38_,X_INTRODUCED_28_,X_INTRODUCED_16_,X_INTRODUCED_11_],X_INTRODUCED_99_):: defines_var(X_INTRODUCED_99_);
constraint array_bool_and([X_INTRODUCED_67_,X_INTRODUCED_64_,X_INTRODUCED_54_,X_INTRODUCED_52_,X_INTRODUCED_47_,X_INTRODUCED_46_,X_INTRODUCED_45_,X_INTRODUCED_44_,X_INTRODUCED_40_,X_INTRODUCED_35_,X_INTRODUCED_19_,X_INTRODUCED_11_],X_INTRODUCED_100_):: defines_var(X_INTRODUCED_100_);
constraint array_bool_and([X_INTRODUCED_72_,X_INTRODUCED_61_,X_INTRODUCED_59_,X_INTRODUCED_54_,X_INTRODUCED_49_,X_INTRODUCED_46_,X_INTRODUCED_44_,X_INTRODUCED_43_,X_INTRODUCED_24_,X_INTRODUCED_16_,X_INTRODUCED_14_,X_INTRODUCED_11_],X_INTRODUCED_101_):: defines_var(X_INTRODUCED_101_);
constraint int_lin_eq_reif(X_INTRODUCED_1_,[X_INTRODUCED_106_,X_INTRODUCED_107_],1,X_INTRODUCED_109_):: defines_var(X_INTRODUCED_109_);
constraint int_eq_reif(X_INTRODUCED_111_,X_INTRODUCED_113_,X_INTRODUCED_114_):: defines_var(X_INTRODUCED_114_);
constraint int_eq_reif(X_INTRODUCED_115_,X_INTRODUCED_116_,X_INTRODUCED_117_):: defines_var(X_INTRODUCED_117_);
constraint int_lin_eq_reif(X_INTRODUCED_1_,[X_INTRODUCED_118_,X_INTRODUCED_107_],1,X_INTRODUCED_119_):: defines_var(X_INTRODUCED_119_);
constraint int_lin_eq_reif(X_INTRODUCED_1_,[X_INTRODUCED_121_,X_INTRODUCED_113_],-1,X_INTRODUCED_123_):: defines_var(X_INTRODUCED_123_);
constraint int_eq_reif(X_INTRODUCED_124_,X_INTRODUCED_116_,X_INTRODUCED_125_):: defines_var(X_INTRODUCED_125_);
constraint int_lin_eq_reif(X_INTRODUCED_1_,[X_INTRODUCED_126_,X_INTRODUCED_107_],2,X_INTRODUCED_128_):: defines_var(X_INTRODUCED_128_);
constraint int_lin_eq_reif(X_INTRODUCED_1_,[X_INTRODUCED_130_,X_INTRODUCED_113_],-1,X_INTRODUCED_131_):: defines_var(X_INTRODUCED_131_);
constraint int_eq_reif(X_INTRODUCED_132_,X_INTRODUCED_116_,X_INTRODUCED_133_):: defines_var(X_INTRODUCED_133_);
constraint array_bool_and([X_INTRODUCED_133_,X_INTRODUCED_131_,X_INTRODUCED_128_,X_INTRODUCED_125_,X_INTRODUCED_123_,X_INTRODUCED_119_,X_INTRODUCED_117_,X_INTRODUCED_114_,X_INTRODUCED_109_],X_INTRODUCED_134_):: defines_var(X_INTRODUCED_134_);
constraint int_eq_reif(X_INTRODUCED_106_,X_INTRODUCED_107_,X_INTRODUCED_135_):: defines_var(X_INTRODUCED_135_);
constraint int_lin_eq_reif(X_INTRODUCED_1_,[X_INTRODUCED_111_,X_INTRODUCED_113_],-1,X_INTRODUCED_136_):: defines_var(X_INTRODUCED_136_);
constraint int_eq_reif(X_INTRODUCED_118_,X_INTRODUCED_107_,X_INTRODUCED_137_):: defines_var(X_INTRODUCED_137_);
constraint int_lin_eq_reif(X_INTRODUCED_1_,[X_INTRODUCED_124_,X_INTRODUCED_116_],-1,X_INTRODUCED_139_):: defines_var(X_INTRODUCED_139_);
constraint int_eq_reif(X_INTRODUCED_126_,X_INTRODUCED_107_,X_INTRODUCED_140_):: defines_var(X_INTRODUCED_140_);
constraint int_lin_eq_reif(X_INTRODUCED_1_,[X_INTRODUCED_130_,X_INTRODUCED_113_],-2,X_INTRODUCED_142_):: defines_var(X_INTRODUCED_142_);
constraint int_lin_eq_reif(X_INTRODUCED_1_,[X_INTRODUCED_132_,X_INTRODUCED_116_],-1,X_INTRODUCED_143_):: defines_var(X_INTRODUCED_143_);
constraint array_bool_and([X_INTRODUCED_143_,X_INTRODUCED_142_,X_INTRODUCED_140_,X_INTRODUCED_139_,X_INTRODUCED_137_,X_INTRODUCED_136_,X_INTRODUCED_135_,X_INTRODUCED_123_,X_INTRODUCED_117_],X_INTRODUCED_144_):: defines_var(X_INTRODUCED_144_);
constraint int_lin_eq_reif(X_INTRODUCED_1_,[X_INTRODUCED_121_,X_INTRODUCED_113_],1,X_INTRODUCED_149_):: defines_var(X_INTRODUCED_149_);
constraint int_lin_eq_reif(X_INTRODUCED_1_,[X_INTRODUCED_130_,X_INTRODUCED_113_],1,X_INTRODUCED_150_):: defines_var(X_INTRODUCED_150_);
constraint int_lin_eq_reif(X_INTRODUCED_1_,[X_INTRODUCED_111_,X_INTRODUCED_113_],1,X_INTRODUCED_151_):: defines_var(X_INTRODUCED_151_);
constraint int_lin_eq_reif(X_INTRODUCED_1_,[X_INTRODUCED_126_,X_INTRODUCED_107_],1,X_INTRODUCED_152_):: defines_var(X_INTRODUCED_152_);
constraint int_lin_eq_reif(X_INTRODUCED_1_,[X_INTRODUCED_130_,X_INTRODUCED_113_],2,X_INTRODUCED_154_):: defines_var(X_INTRODUCED_154_);
constraint array_bool_and([X_INTRODUCED_154_,X_INTRODUCED_152_,X_INTRODUCED_151_,X_INTRODUCED_149_,X_INTRODUCED_135_,X_INTRODUCED_133_,X_INTRODUCED_125_,X_INTRODUCED_119_,X_INTRODUCED_117_],X_INTRODUCED_155_):: defines_var(X_INTRODUCED_155_);
constraint int_eq_reif(X_INTRODUCED_121_,X_INTRODUCED_113_,X_INTRODUCED_158_):: defines_var(X_INTRODUCED_158_);
constraint int_lin_eq_reif(X_INTRODUCED_1_,[X_INTRODUCED_124_,X_INTRODUCED_116_],1,X_INTRODUCED_159_):: defines_var(X_INTRODUCED_159_);
constraint int_eq_reif(X_INTRODUCED_130_,X_INTRODUCED_113_,X_INTRODUCED_160_):: defines_var(X_INTRODUCED_160_);
constraint int_lin_eq_reif(X_INTRODUCED_1_,[X_INTRODUCED_132_,X_INTRODUCED_116_],1,X_INTRODUCED_163_):: defines_var(X_INTRODUCED_163_);
constraint array_bool_and([X_INTRODUCED_163_,X_INTRODUCED_159_,X_INTRODUCED_142_,X_INTRODUCED_140_,X_INTRODUCED_137_,X_INTRODUCED_136_,X_INTRODUCED_135_,X_INTRODUCED_123_,X_INTRODUCED_117_],X_INTRODUCED_164_):: defines_var(X_INTRODUCED_164_);
constraint int_lin_eq_reif(X_INTRODUCED_1_,[X_INTRODUCED_118_,X_INTRODUCED_107_],-1,X_INTRODUCED_166_):: defines_var(X_INTRODUCED_166_);
constraint int_lin_eq_reif(X_INTRODUCED_1_,[X_INTRODUCED_126_,X_INTRODUCED_107_],-1,X_INTRODUCED_167_):: defines_var(X_INTRODUCED_167_);
constraint int_lin_eq_reif(X_INTRODUCED_1_,[X_INTRODUCED_106_,X_INTRODUCED_107_],-1,X_INTRODUCED_168_):: defines_var(X_INTRODUCED_168_);
constraint int_lin_eq_reif(X_INTRODUCED_1_,[X_INTRODUCED_126_,X_INTRODUCED_107_],-2,X_INTRODUCED_170_):: defines_var(X_INTRODUCED_170_);
constraint array_bool_and([X_INTRODUCED_160_,X_INTRODUCED_158_,X_INTRODUCED_143_,X_INTRODUCED_139_,X_INTRODUCED_128_,X_INTRODUCED_119_,X_INTRODUCED_117_,X_INTRODUCED_114_,X_INTRODUCED_109_],X_INTRODUCED_172_):: defines_var(X_INTRODUCED_172_);
constraint array_bool_and([X_INTRODUCED_167_,X_INTRODUCED_166_,X_INTRODUCED_154_,X_INTRODUCED_151_,X_INTRODUCED_149_,X_INTRODUCED_135_,X_INTRODUCED_133_,X_INTRODUCED_125_,X_INTRODUCED_117_],X_INTRODUCED_175_):: defines_var(X_INTRODUCED_175_);
constraint array_bool_and([X_INTRODUCED_170_,X_INTRODUCED_168_,X_INTRODUCED_166_,X_INTRODUCED_150_,X_INTRODUCED_149_,X_INTRODUCED_133_,X_INTRODUCED_125_,X_INTRODUCED_117_,X_INTRODUCED_114_],X_INTRODUCED_176_):: defines_var(X_INTRODUCED_176_);
constraint array_bool_and([X_INTRODUCED_163_,X_INTRODUCED_159_,X_INTRODUCED_154_,X_INTRODUCED_151_,X_INTRODUCED_149_,X_INTRODUCED_140_,X_INTRODUCED_137_,X_INTRODUCED_135_,X_INTRODUCED_117_],X_INTRODUCED_177_):: defines_var(X_INTRODUCED_177_);
constraint array_bool_and([X_INTRODUCED_170_,X_INTRODUCED_168_,X_INTRODUCED_166_,X_INTRODUCED_163_,X_INTRODUCED_160_,X_INTRODUCED_159_,X_INTRODUCED_158_,X_INTRODUCED_117_,X_INTRODUCED_114_],X_INTRODUCED_179_):: defines_var(X_INTRODUCED_179_);
constraint array_bool_and([X_INTRODUCED_154_,X_INTRODUCED_151_,X_INTRODUCED_149_,X_INTRODUCED_143_,X_INTRODUCED_140_,X_INTRODUCED_139_,X_INTRODUCED_137_,X_INTRODUCED_135_,X_INTRODUCED_117_],X_INTRODUCED_180_):: defines_var(X_INTRODUCED_180_);
constraint array_bool_and([X_INTRODUCED_152_,X_INTRODUCED_142_,X_INTRODUCED_136_,X_INTRODUCED_135_,X_INTRODUCED_133_,X_INTRODUCED_125_,X_INTRODUCED_123_,X_INTRODUCED_119_,X_INTRODUCED_117_],X_INTRODUCED_181_):: defines_var(X_INTRODUCED_181_);
constraint array_bool_and([X_INTRODUCED_167_,X_INTRODUCED_166_,X_INTRODUCED_142_,X_INTRODUCED_136_,X_INTRODUCED_135_,X_INTRODUCED_133_,X_INTRODUCED_125_,X_INTRODUCED_123_,X_INTRODUCED_117_],X_INTRODUCED_182_):: defines_var(X_INTRODUCED_182_);
solve  satisfy;
